proyfinal/src/viki/013/experimentInOfficeAgust.take6.output/da70ed24-968e-4235-89ac-3dc42b30a242.als.dat
{'cnf.clauses': '118081',
 'cnf.totvars': '69608',
 'conflict literals': '11',
 'conflicts': '7',
 'decisions': '2794',
 'memused.mb': '15.41',
 'outcome': 'UNSAT',
 'propagations': '22352',
 'restarts': '1',
 'solver.msecs': 34,
 'task.msecs': 80}
