proyfinal/src/viki/013/experimentInOfficeAgust.take6.output/da70ed24-968e-4235-89ac-3dc42b30a242.als.out
Reading from standard input... Use '--help' for help.
============================[ Problem Statistics ]=============================
|                                                                             |
|  Number of variables:         69608                                         |
|  Number of clauses:          118081                                         |
|  Parse time:                   0.03 s                                       |
|                                                                             |
============================[ Search Statistics ]==============================
| Conflicts |          ORIGINAL         |          LEARNT          | Progress |
|           |    Vars  Clauses Literals |    Limit  Clauses Lit/Cl |          |
===============================================================================
===============================================================================
restarts              : 1
conflicts             : 7              (202 /sec)
decisions             : 2794           (0.00 % random) (80670 /sec)
propagations          : 22352          (645359 /sec)
conflict literals     : 11             (0.00 % deleted)
Memory used           : 15.41 MB
CPU time              : 0.034635 s

UNSATISFIABLE
